Route #1: 0 5 18 21 32 42 2 3 27 15 0
Route #2: 0 25 24 59 60 50 35 26 39 0
Route #3: 0 64 31 4 44 10 12 11 0
Route #4: 0 28 13 56 58 53 0
Route #5: 0 47 63 48 23 8 40 45 0
Route #6: 0 51 17 37 38 20 52 62 0
Route #7: 0 34 22 14 30 55 1 0
Route #8: 0 7 19 41 36 49 43 6 0
Route #9: 0 46 9 16 61 29 33 57 54 0
Cost 2310:
